&control
    calculation = 'nscf'
    prefix = 'si'
    outdir = './tmp'
    pseudo_dir = './'
    verbosity = 'high'
/
&system
    ibrav = 2
    celldm(1) = 10.20
    nat = 2
    ntyp = 1
    ecutwfc = 12.0
    ecutrho = 48.0
    nbnd = 4
    input_dft = 'sla+pz'
    occupations = 'fixed'
    nr1 = 15
    nr2 = 15
    nr3 = 15
/
&electrons
/
ATOMIC_SPECIES
 Si 28.086 Si.pz-rrkj.UPF
ATOMIC_POSITIONS crystal
 Si 0.00 0.00 0.00
 Si 0.25 0.25 0.25
K_POINTS gamma
