&CONTROL
    calculation = 'scf'
    prefix = 'sic'
    pseudo_dir = '../pseudopotentials/'
    outdir = './tmp/'
    verbosity = 'high'
/
&SYSTEM
    ibrav = 2
    celldm(1) = 8.22
    nat = 2
    ntyp = 2
    ecutwfc = 20.0
    ecutrho = 80.0
/
&ELECTRONS
    conv_thr = 1.0d-8
/
ATOMIC_SPECIES
    Si  28.086  Si.pz-rrkj.UPF
    C   12.011  C.pz-vbc.UPF
ATOMIC_POSITIONS crystal
    Si  0.00  0.00  0.00
    C   0.25  0.25  0.25
K_POINTS gamma
