Si FCC structure
1.0
  -2.69880378  0.00000000  2.69880378
   0.00000000  2.69880378  2.69880378
  -2.69880378  2.69880378  0.00000000
Si
2
Direct
  0.00000000  0.00000000  0.00000000
  0.25000000  0.25000000  0.25000000
